21° run output:
{
    "Function": "euclidB300.tsp",
    "Problem dimension": [
        126,
        193,
        210,
        288,
        274,
        122,
        99,
        256,
        255,
        70,
        17,
        143,
        50,
        4,
        273,
        194,
        71,
        104,
        113,
        257,
        109,
        202,
        65,
        87,
        200,
        27,
        278,
        18,
        252,
        89,
        88,
        203,
        283,
        167,
        28,
        100,
        266,
        219,
        239,
        248,
        84,
        186,
        157,
        178,
        76,
        103,
        24,
        233,
        199,
        97,
        184,
        37,
        38,
        201,
        101,
        159,
        281,
        183,
        244,
        294,
        220,
        180,
        297,
        163,
        83,
        21,
        166,
        230,
        217,
        170,
        16,
        263,
        93,
        19,
        191,
        258,
        111,
        185,
        259,
        169,
        3,
        250,
        5,
        90,
        240,
        249,
        246,
        31,
        49,
        267,
        253,
        276,
        85,
        102,
        80,
        12,
        110,
        158,
        149,
        58,
        124,
        198,
        254,
        181,
        62,
        55,
        174,
        53,
        34,
        227,
        147,
        298,
        6,
        138,
        54,
        35,
        218,
        108,
        215,
        23,
        165,
        228,
        81,
        216,
        68,
        196,
        112,
        226,
        296,
        42,
        154,
        279,
        291,
        137,
        98,
        15,
        82,
        14,
        73,
        36,
        245,
        8,
        168,
        96,
        77,
        92,
        114,
        156,
        264,
        190,
        182,
        7,
        116,
        132,
        51,
        172,
        272,
        207,
        162,
        179,
        292,
        0,
        229,
        66,
        46,
        232,
        290,
        287,
        56,
        286,
        223,
        153,
        208,
        280,
        195,
        209,
        57,
        238,
        251,
        134,
        164,
        155,
        150,
        235,
        145,
        63,
        142,
        91,
        107,
        40,
        32,
        242,
        133,
        118,
        9,
        211,
        152,
        128,
        135,
        78,
        160,
        265,
        141,
        237,
        106,
        129,
        59,
        20,
        171,
        1,
        284,
        188,
        275,
        222,
        25,
        121,
        293,
        48,
        146,
        176,
        212,
        74,
        130,
        11,
        270,
        243,
        221,
        206,
        41,
        2,
        177,
        234,
        148,
        120,
        224,
        95,
        289,
        225,
        125,
        10,
        26,
        52,
        139,
        213,
        105,
        79,
        75,
        161,
        144,
        69,
        131,
        140,
        94,
        45,
        241,
        236,
        117,
        13,
        43,
        261,
        282,
        187,
        271,
        214,
        136,
        67,
        60,
        22,
        44,
        30,
        269,
        189,
        277,
        260,
        247,
        47,
        268,
        115,
        86,
        61,
        231,
        64,
        205,
        175,
        192,
        72,
        299,
        151,
        33,
        285,
        197,
        262,
        204,
        29,
        295,
        39,
        127,
        119,
        123,
        173
    ],
    "Global Optimum": 0,
    "Algorithm": "Genetic algorithm",
    "Parameters": {
        "population": 30,
        "offspring": 30,
        "mutation probability": 0.0033333333333333335,
        "crossover probability": 0.9
    },
    "Fitness": 274419,
    "Solution": [
        126,
        193,
        210,
        288,
        274,
        122,
        99,
        256,
        255,
        70,
        17,
        143,
        50,
        4,
        273,
        194,
        71,
        104,
        113,
        257,
        109,
        202,
        65,
        87,
        200,
        27,
        278,
        18,
        252,
        89,
        88,
        203,
        283,
        167,
        28,
        100,
        266,
        219,
        239,
        248,
        84,
        186,
        157,
        178,
        76,
        103,
        24,
        233,
        199,
        97,
        184,
        37,
        38,
        201,
        101,
        159,
        281,
        183,
        244,
        294,
        220,
        180,
        297,
        163,
        83,
        21,
        166,
        230,
        217,
        170,
        16,
        263,
        93,
        19,
        191,
        258,
        111,
        185,
        259,
        169,
        3,
        250,
        5,
        90,
        240,
        249,
        246,
        31,
        49,
        267,
        253,
        276,
        85,
        102,
        80,
        12,
        110,
        158,
        149,
        58,
        124,
        198,
        254,
        181,
        62,
        55,
        174,
        53,
        34,
        227,
        147,
        298,
        6,
        138,
        54,
        35,
        218,
        108,
        215,
        23,
        165,
        228,
        81,
        216,
        68,
        196,
        112,
        226,
        296,
        42,
        154,
        279,
        291,
        137,
        98,
        15,
        82,
        14,
        73,
        36,
        245,
        8,
        168,
        96,
        77,
        92,
        114,
        156,
        264,
        190,
        182,
        7,
        116,
        132,
        51,
        172,
        272,
        207,
        162,
        179,
        292,
        0,
        229,
        66,
        46,
        232,
        290,
        287,
        56,
        286,
        223,
        153,
        208,
        280,
        195,
        209,
        57,
        238,
        251,
        134,
        164,
        155,
        150,
        235,
        145,
        63,
        142,
        91,
        107,
        40,
        32,
        242,
        133,
        118,
        9,
        211,
        152,
        128,
        135,
        78,
        160,
        265,
        141,
        237,
        106,
        129,
        59,
        20,
        171,
        1,
        284,
        188,
        275,
        222,
        25,
        121,
        293,
        48,
        146,
        176,
        212,
        74,
        130,
        11,
        270,
        243,
        221,
        206,
        41,
        2,
        177,
        234,
        148,
        120,
        224,
        95,
        289,
        225,
        125,
        10,
        26,
        52,
        139,
        213,
        105,
        79,
        75,
        161,
        144,
        69,
        131,
        140,
        94,
        45,
        241,
        236,
        117,
        13,
        43,
        261,
        282,
        187,
        271,
        214,
        136,
        67,
        60,
        22,
        44,
        30,
        269,
        189,
        277,
        260,
        247,
        47,
        268,
        115,
        86,
        61,
        231,
        64,
        205,
        175,
        192,
        72,
        299,
        151,
        33,
        285,
        197,
        262,
        204,
        29,
        295,
        39,
        127,
        119,
        123,
        173
    ],
    "Nb of functions evaluations": 400020,
    "Computational time in seconds": 694.0181097984314,
    "Stopping criterion in evaluations": 400000
}